% MIT License
%
% Copyright (c) 2021 Johan Ludde Wessén
%
% Permission is hereby granted, free of charge, to any person obtaining 
% a copy of this software and associated documentation files (the "Software"),
% to deal in the Software without restriction, including without limitation 
% the rights to use, copy, modify, merge, publish, distribute, sublicense, 
% and/or sell copies of the Software, and to permit persons to whom the 
% Software is furnished to do so, subject to the following conditions:
% 
% The above copyright notice and this permission notice shall be included 
% in all copies or substantial portions of the Software.
%
% THE SOFTWARE IS PROVIDED "AS IS", WITHOUT WARRANTY OF ANY KIND, 
% EXPRESS OR IMPLIED, INCLUDING BUT NOT LIMITED TO THE WARRANTIES OF
% MERCHANTABILITY, FITNESS FOR A PARTICULAR PURPOSE AND
% NONINFRINGEMENT. IN NO EVENT SHALL THE AUTHORS OR COPYRIGHT HOLDERS BE
% LIABLE FOR ANY CLAIM, DAMAGES OR OTHER LIABILITY, WHETHER IN AN ACTION
% OF CONTRACT, TORT OR OTHERWISE, ARISING FROM, OUT OF OR IN CONNECTION
% WITH THE SOFTWARE OR THE USE OR OTHER DEALINGS IN THE SOFTWARE.

%-----------------------------------------------------------------------------%
% Dual Arm Multi Capacity Multi Tool Scheduling / Routing
% Assembly Configuration
% Auto Generated by python script, authored by Johan Ludde Wessen 
%-----------------------------------------------------------------------------%


task_durations = [|21, 25, 25, 26, 20, 31, 42, 52, 49, 50, 51, 46, 37, 23,  7,  5,  5,  6,  5
                  |25, 31, 29, 22, 22, 27, 47, 55, 52, 59, 51, 48, 30, 29,  5,  6,  4,  5,  6
                  |];


TRAY_TASKS = 1..4;
CAMERA_TASKS = 13..14;
OUTPUT_TASKS = { 12 };


empty_gripper_tasks = 15..19;


gripper_pick_tasks_orders = [|1, 7, -1
|2, 8, -1
|5, 11, -1
|6, 12, -1
|];

suction_pick_tasks_orders = [|3, 13, 9, -1
|4, 14, 10, -1
|];

fixture_task_orders = [|9, 17, 7, 15, 5, -1, -1, -1
|10, 18, 8, 16, 11, 19, 6, -1
|];


% MIT License
%
% Copyright (c) 2021 Johan Ludde Wessén
%
% Permission is hereby granted, free of charge, to any person obtaining 
% a copy of this software and associated documentation files (the "Software"),
% to deal in the Software without restriction, including without limitation 
% the rights to use, copy, modify, merge, publish, distribute, sublicense, 
% and/or sell copies of the Software, and to permit persons to whom the 
% Software is furnished to do so, subject to the following conditions:
% 
% The above copyright notice and this permission notice shall be included 
% in all copies or substantial portions of the Software.
%
% THE SOFTWARE IS PROVIDED "AS IS", WITHOUT WARRANTY OF ANY KIND, 
% EXPRESS OR IMPLIED, INCLUDING BUT NOT LIMITED TO THE WARRANTIES OF
% MERCHANTABILITY, FITNESS FOR A PARTICULAR PURPOSE AND
% NONINFRINGEMENT. IN NO EVENT SHALL THE AUTHORS OR COPYRIGHT HOLDERS BE
% LIABLE FOR ANY CLAIM, DAMAGES OR OTHER LIABILITY, WHETHER IN AN ACTION
% OF CONTRACT, TORT OR OTHERWISE, ARISING FROM, OUT OF OR IN CONNECTION
% WITH THE SOFTWARE OR THE USE OR OTHER DEALINGS IN THE SOFTWARE.


%-----------------------------------------------------------------------------%
% Dual Arm Multi Capacity Multi Tool Scheduling / Routing
% YuMi + Workspace Configuration
% Auto Generated by python scrip, authored by Ludde Wessen
%-----------------------------------------------------------------------------%


no_suction_cups = 2;
left_arm_travel_times = [|
  -1, -1, -1, -1, -1, -1, -1, -1, -1, -1, -1, -1, -1, -1, -1, -1, -1, -1, -1, -1, -1,
| -1, -1, -1, -1, -1, -1, -1, -1, -1, -1, -1, -1, -1, -1, -1, -1, -1, -1, -1, -1, -1,
| -1, -1, -1, -1, -1, -1, -1, -1, -1, -1, -1, -1, -1, -1, -1, -1, -1, -1, -1, -1, -1,
| -1, -1, -1,  0, 39, 71, 64, 75, -1, -1, -1, 28, 61, 77, 70, 89, 37, 20, 88, 83, -1,
| -1, -1, -1, 39,  0, 92, 75, 64, -1, -1, -1, 31, 28, 89, 71, 70, 73, 57,103, 84, -1,
| -1, -1, -1, 71, 92,  0, 30, 66, -1, -1, -1, 77,104, 28, 42, 81, 65, 65, 93, 47, -1,
| -1, -1, -1, 64, 75, 30,  0, 39, -1, -1, -1, 70, 89, 42, 28, 61, 75, 67,109, 44, -1,
| -1, -1, -1, 75, 64, 66, 39,  0, -1, -1, -1, 71, 70, 62, 31, 28, 97, 86,122, 45, -1,
| -1, -1, -1, -1, -1, -1, -1, -1, -1, -1, -1, -1, -1, -1, -1, -1, -1, -1, -1, -1, -1,
| -1, -1, -1, -1, -1, -1, -1, -1, -1, -1, -1, -1, -1, -1, -1, -1, -1, -1, -1, -1, -1,
| -1, -1, -1, -1, -1, -1, -1, -1, -1, -1, -1, -1, -1, -1, -1, -1, -1, -1, -1, -1, -1,
| -1, -1, -1, 28, 31, 77, 70, 71, -1, -1, -1,  0, 39, 71, 64, 75, 47, 35, 73, 73, -1,
| -1, -1, -1, 61, 28,104, 89, 70, -1, -1, -1, 39,  0, 92, 75, 64, 87, 74, 98, 83, -1,
| -1, -1, -1, 77, 89, 28, 42, 62, -1, -1, -1, 71, 92,  0, 30, 66, 71, 71, 79, 25, -1,
| -1, -1, -1, 70, 71, 42, 28, 31, -1, -1, -1, 64, 75, 30,  0, 39, 80, 73, 98, 19, -1,
| -1, -1, -1, 89, 70, 81, 61, 28, -1, -1, -1, 75, 64, 66, 39,  0,108, 98,118, 43, -1,
| -1, -1, -1, 37, 73, 65, 75, 97, -1, -1, -1, 47, 87, 71, 80,108,  0, 17, 64, 87, -1,
| -1, -1, -1, 20, 57, 65, 67, 86, -1, -1, -1, 35, 74, 71, 73, 98, 17,  0, 74, 83, -1,
| -1, -1, -1, 88,103, 93,109,122, -1, -1, -1, 73, 98, 79, 98,118, 64, 74,  0, 92, -1,
| -1, -1, -1, 83, 84, 47, 44, 45, -1, -1, -1, 73, 83, 25, 19, 43, 87, 83, 92,  0, -1,
| -1, -1, -1, -1, -1, -1, -1, -1, -1, -1, -1, -1, -1, -1, -1, -1, -1, -1, -1, -1, -1
|];

right_arm_travel_times = [|
   0, 30, 66, 71, 92, -1, -1, -1, 28, 42, 81, 77,104, -1, -1, -1, 65, 65, 93, -1, 47,
| 30,  0, 39, 64, 75, -1, -1, -1, 42, 28, 61, 70, 89, -1, -1, -1, 75, 67,109, -1, 44,
| 66, 39,  0, 75, 64, -1, -1, -1, 62, 31, 28, 71, 70, -1, -1, -1, 97, 86,122, -1, 45,
| 71, 64, 75,  0, 39, -1, -1, -1, 77, 70, 89, 28, 61, -1, -1, -1, 37, 20, 88, -1, 83,
| 92, 75, 64, 39,  0, -1, -1, -1, 89, 71, 70, 31, 28, -1, -1, -1, 73, 57,103, -1, 84,
| -1, -1, -1, -1, -1, -1, -1, -1, -1, -1, -1, -1, -1, -1, -1, -1, -1, -1, -1, -1, -1,
| -1, -1, -1, -1, -1, -1, -1, -1, -1, -1, -1, -1, -1, -1, -1, -1, -1, -1, -1, -1, -1,
| -1, -1, -1, -1, -1, -1, -1, -1, -1, -1, -1, -1, -1, -1, -1, -1, -1, -1, -1, -1, -1,
| 28, 42, 62, 77, 89, -1, -1, -1,  0, 30, 66, 71, 92, -1, -1, -1, 71, 71, 79, -1, 25,
| 42, 28, 31, 70, 71, -1, -1, -1, 30,  0, 39, 64, 75, -1, -1, -1, 80, 73, 98, -1, 19,
| 81, 61, 28, 89, 70, -1, -1, -1, 66, 39,  0, 75, 64, -1, -1, -1,108, 98,118, -1, 43,
| 77, 70, 71, 28, 31, -1, -1, -1, 71, 64, 75,  0, 39, -1, -1, -1, 47, 35, 73, -1, 73,
|104, 89, 70, 61, 28, -1, -1, -1, 92, 75, 64, 39,  0, -1, -1, -1, 87, 74, 98, -1, 83,
| -1, -1, -1, -1, -1, -1, -1, -1, -1, -1, -1, -1, -1, -1, -1, -1, -1, -1, -1, -1, -1,
| -1, -1, -1, -1, -1, -1, -1, -1, -1, -1, -1, -1, -1, -1, -1, -1, -1, -1, -1, -1, -1,
| -1, -1, -1, -1, -1, -1, -1, -1, -1, -1, -1, -1, -1, -1, -1, -1, -1, -1, -1, -1, -1,
| 65, 75, 97, 37, 73, -1, -1, -1, 71, 80,108, 47, 87, -1, -1, -1,  0, 17, 64, -1, 87,
| 65, 67, 86, 20, 57, -1, -1, -1, 71, 73, 98, 35, 74, -1, -1, -1, 17,  0, 74, -1, 83,
| 93,109,122, 88,103, -1, -1, -1, 79, 98,118, 73, 98, -1, -1, -1, 64, 74,  0, -1, 92,
| -1, -1, -1, -1, -1, -1, -1, -1, -1, -1, -1, -1, -1, -1, -1, -1, -1, -1, -1, -1, -1,
| 47, 44, 45, 83, 84, -1, -1, -1, 25, 19, 43, 73, 83, -1, -1, -1, 87, 83, 92, -1,  0
|];

%                    Tray 1,   Tray 2,   Tray 3,   Tray 4,   Tray 5,   Tray 6,   Tray 7,   Tray 8, Camera 1, Camera 2, Camera 3, Camera 4, Camera 5, Camera 6, Camera 7, Camera 8,Fixture 1,Fixture 2,Fixture 3, AirGun 1, Output 1,
%                         1,        2,        3,        4,        5,        6,        7,        8,        9,       10,       11,       12,       13,       14,       15,       16,       17,       18,       19,       20,       21,
location_order = [        6,        5,        4,        3,        3,        0,        1,        2,        6,        5,        4,        3,        3,        0,        1,        2,       -1,       -2,       -3,        1,        5];


FixtureWorkObstruction = [2, 4];


TRAY_LOCATIONS = 1..8;
CAMERA_LOCATIONS = 9..16;
FIXTURE_LOCATIONS = 17..19;
AIRGUN_LOCATIONS = 20..20;
OUTPUT_LOCATIONS = 21..21;
